
  22   10
  10   10   10   10   10   10   10   10   10   10

   0   0   0   0   0   0   0   0   0   0   0  10 2 3 5 7 10 17 18 19 20 21 
   8   0  10   0   0   0   0   0   0   0   0   2 13 4 
  10   0   0   0   0  10   0   0   0   0   0   3 16 13 8 
   9   0   0   0   0   0   0   0  10   0   0   2 14 6 
   3   0   0   0   0   0   0  10   0   0   0   2 15 8 
   1   0   0   0   0  10   0   0   0   0   0   1 8 
   5   0   0   0   0  10   0   0   0   0   0   1 8 
   4   0   0   0   0   0   0   0   0  10   0   2 12 9 
   8   0   0   0   0   0   0  10   0   0   0   1 11 
   7   0  10   0   0   0   0   0   0   0   0   1 13 
   5   0   0   0   0   0  10   0   0   0   0   1 22
   2   0   0   0   0  10   0   0   0   0   0   1 22
   2   0   0   0  10   0   0   0   0   0   0   1 22
   2   0   0   0   0   0  10   0   0   0   0   1 22
   8   0   0   0   0   0   0  10   0   0   0   1 22
   1   0   0   0   0   0   0   0   0   0  10   1 22
   5   0   0   0   0   0   0   0  10   0   0   1 22
   1   0   0   0   0   0   0  10   0   0   0   1 22
  10   0   0   0   0   0  10   0   0   0   0   1 22
   6  10   0   0   0   0   0   0   0   0   0   1 22
   5   0  10   0   0   0   0   0   0   0   0   1 22
   0   0   0   0   0   0   0   0   0   0   0   0 
